p cnf 1344 2098
-26 31 60 101 0
60 -75 79 -101 0
48 90 102 103 0
48 90 102 -103 0
48 90 -102 103 0
48 90 -102 -103 0
-30 41 104 105 0
-30 41 104 -105 0
-30 41 -104 105 0
-30 41 -104 -105 0
13 -28 -33 106 0
-33 -37 -106 107 0
-37 50 -107 108 0
50 55 -108 109 0
55 -68 -109 110 0
-68 72 -110 111 0
72 -94 98 -111 0
15 -22 -90 112 0
15 -22 -90 -112 0
33 -43 -54 -91 0
32 34 52 113 0
52 88 -113 114 0
88 -91 98 -114 0
18 -49 115 116 0
18 -49 115 -116 0
18 -49 -115 116 0
18 -49 -115 -116 0
7 57 60 117 0
60 -87 93 -117 0
-43 46 -56 118 0
-43 46 -56 -118 0
30 31 62 119 0
30 31 62 -119 0
29 35 50 120 0
50 65 -120 121 0
65 72 -77 -121 0
-12 -29 -89 122 0
-12 -29 -89 -122 0
-2 21 26 123 0
26 35 -123 124 0
35 -47 -124 125 0
-47 -88 91 -125 0
9 11 -32 126 0
-32 -34 -126 127 0
-34 43 -127 128 0
43 -49 -53 -128 0
-1 52 57 129 0
57 -72 -98 -129 0
10 37 -72 130 0
10 37 -72 -130 0
26 82 131 132 0
26 82 131 -132 0
26 82 -131 132 0
26 82 -131 -132 0
-49 -59 -82 133 0
-82 89 -95 -133 0
15 18 -25 134 0
-25 31 -134 135 0
31 83 -87 -135 0
34 48 49 -84 0
-24 -28 56 136 0
56 57 -136 137 0
57 -64 -137 138 0
-64 -69 -75 -138 0
11 13 30 139 0
30 -43 -139 140 0
-43 50 -140 141 0
50 -51 -141 142 0
-51 -88 -142 143 0
-88 97 -100 -143 0
-6 22 -33 144 0
-33 -65 -144 145 0
-65 -71 -84 -145 0
-5 50 57 146 0
57 -58 96 -146 0
-19 -39 44 147 0
44 -51 -147 148 0
-51 -66 -148 149 0
-66 -70 -75 -149 0
2 42 -68 150 0
-68 -82 -150 151 0
-82 -86 -151 152 0
-86 -90 100 -152 0
53 60 -71 -100 0
30 -43 -70 153 0
-70 -73 86 -153 0
1 5 -11 154 0
-11 -35 -154 155 0
-35 82 -155 156 0
82 -87 -156 157 0
-87 94 95 -157 0
-13 39 -49 158 0
-49 69 -158 159 0
69 71 -159 160 0
71 84 85 -160 0
64 77 80 161 0
80 82 -96 -161 0
-12 -53 -76 -82 0
-1 -11 -22 162 0
-22 65 -162 163 0
65 66 -163 164 0
66 -72 93 -164 0
24 62 88 165 0
24 62 88 -165 0
24 -45 53 166 0
53 75 81 -166 0
-17 -36 49 167 0
49 -90 -97 -167 0
81 -94 168 169 0
81 -94 168 -169 0
81 -94 -168 169 0
81 -94 -168 -169 0
-4 -19 -22 170 0
-22 -43 -170 171 0
-43 -55 -171 172 0
-55 79 -172 173 0
79 80 -91 -173 0
21 53 -58 174 0
-58 65 -174 175 0
65 92 -93 -175 0
1 -30 33 176 0
33 -42 -176 177 0
-42 -45 -177 178 0
-45 -81 -178 179 0
-81 -86 -179 180 0
-86 92 93 -180 0
24 -39 43 181 0
24 -39 43 -181 0
8 -9 -12 182 0
-12 -90 95 -182 0
-14 24 77 -99 0
11 23 47 183 0
47 -48 -183 184 0
-48 65 -184 185 0
65 66 -185 186 0
66 77 -186 187 0
77 85 -187 188 0
85 -93 -100 -188 0
11 -17 -61 189 0
-61 65 -189 190 0
65 -73 -190 191 0
-73 76 -77 -191 0
-18 -22 -34 192 0
-34 -77 93 -192 0
12 96 193 194 0
12 96 193 -194 0
12 96 -193 194 0
12 96 -193 -194 0
58 -71 88 195 0
58 -71 88 -195 0
23 -54 -63 95 0
5 -67 -69 75 0
31 32 -41 196 0
-41 -64 -70 -196 0
1 25 42 197 0
42 52 -197 198 0
52 53 -198 199 0
53 -56 -199 200 0
-56 -66 -200 201 0
-66 81 -92 -201 0
-34 37 -43 46 0
1 -39 55 95 0
45 -52 61 202 0
61 -68 92 -202 0
-12 30 203 204 0
-12 30 203 -204 0
-12 30 -203 204 0
-12 30 -203 -204 0
21 -25 -47 205 0
-47 50 -205 206 0
50 56 -206 207 0
56 -63 -207 208 0
-63 -66 -208 209 0
-66 87 -95 -209 0
2 -14 27 210 0
27 -32 -210 211 0
-32 -48 -211 212 0
-48 51 -212 213 0
51 -54 -84 -213 0
-20 -29 40 214 0
40 -41 -214 215 0
-41 -59 -99 -215 0
-6 8 47 216 0
47 86 98 -216 0
51 78 217 218 0
51 78 217 -218 0
51 78 -217 218 0
51 78 -217 -218 0
-15 -41 96 219 0
-15 -41 96 -219 0
-34 49 -86 220 0
-34 49 -86 -220 0
8 -14 -56 221 0
8 -14 -56 -221 0
1 -5 -24 222 0
-24 -33 -222 223 0
-33 53 -223 224 0
53 -67 -79 -224 0
-1 9 -47 225 0
-47 -61 -225 226 0
-61 67 74 -226 0
8 33 227 228 0
8 33 227 -228 0
8 33 -227 228 0
8 33 -227 -228 0
8 18 -46 229 0
-46 62 -229 230 0
62 77 -230 231 0
77 -83 -231 232 0
-83 -93 100 -232 0
25 -26 -48 72 0
-38 -49 -54 233 0
-38 -49 -54 -233 0
-32 -87 234 235 0
-32 -87 234 -235 0
-32 -87 -234 235 0
-32 -87 -234 -235 0
28 -41 -56 236 0
28 -41 -56 -236 0
2 4 -12 237 0
-12 -30 -237 238 0
-30 33 -238 239 0
33 -43 -239 240 0
-43 58 76 -240 0
3 -40 -52 241 0
-52 -58 -241 242 0
-58 81 86 -242 0
43 83 88 243 0
43 83 88 -243 0
1 -21 35 244 0
35 -37 -57 -244 0
43 -44 56 245 0
43 -44 56 -245 0
9 25 27 246 0
27 -49 -246 247 0
-49 52 -247 248 0
52 54 -75 -248 0
32 -37 65 249 0
65 76 -249 250 0
76 -78 -82 -250 0
-10 -49 53 251 0
53 -70 83 -251 0
-7 27 -37 -75 0
-26 -35 41 -95 0
-11 35 37 90 0
45 58 -78 252 0
-78 -87 -252 253 0
-87 -94 98 -253 0
-20 -49 -60 254 0
-60 -77 -254 255 0
-77 80 -95 -255 0
-38 -70 256 257 0
-38 -70 256 -257 0
-38 -70 -256 257 0
-38 -70 -256 -257 0
-7 -18 29 258 0
29 -71 -258 259 0
-71 91 -259 260 0
91 -96 99 -260 0
-17 22 -35 261 0
-35 53 -261 262 0
53 -63 -262 263 0
-63 67 -263 264 0
67 70 -264 265 0
70 -72 -81 -265 0
56 61 68 266 0
56 61 68 -266 0
1 62 100 267 0
1 62 100 -267 0
-11 -28 -65 268 0
-65 75 -268 269 0
75 93 100 -269 0
44 52 55 270 0
55 62 -270 271 0
62 -95 98 -271 0
7 26 -32 272 0
-32 -49 -272 273 0
-49 -51 -90 -273 0
35 -52 -57 274 0
-57 60 -274 275 0
60 74 -85 -275 0
-25 43 46 276 0
46 52 -68 -276 0
-30 -59 -85 100 0
1 -15 50 277 0
50 -52 -277 278 0
-52 85 96 -278 0
38 59 60 279 0
38 59 60 -279 0
40 55 67 280 0
67 89 98 -280 0
54 -57 99 281 0
54 -57 99 -281 0
22 -39 -83 -87 0
-18 -22 -34 91 0
-13 15 -16 282 0
-16 26 -282 283 0
26 -30 -283 284 0
-30 -33 -284 285 0
-33 37 -285 286 0
37 -73 95 -286 0
36 60 63 287 0
63 66 -69 -287 0
75 -86 -97 288 0
75 -86 -97 -288 0
-3 8 12 289 0
12 -24 -289 290 0
-24 26 -290 291 0
26 30 -291 292 0
30 76 -292 293 0
76 94 -99 -293 0
-9 31 35 294 0
35 47 -64 -294 0
-48 -67 84 295 0
-48 -67 84 -295 0
-28 77 87 -96 0
12 73 77 -80 0
3 9 12 296 0
12 14 -296 297 0
14 -28 -44 -297 0
-6 -11 -24 298 0
-24 77 -92 -298 0
-9 -51 -56 299 0
-56 -63 -82 -299 0
-3 -26 88 300 0
88 93 -96 -300 0
15 77 -79 -82 0
34 58 -68 301 0
34 58 -68 -301 0
8 9 -24 302 0
-24 62 70 -302 0
6 22 303 304 0
6 22 303 -304 0
6 22 -303 304 0
6 22 -303 -304 0
76 -85 305 306 0
76 -85 305 -306 0
76 -85 -305 306 0
76 -85 -305 -306 0
-20 67 -79 307 0
-79 83 -307 308 0
83 85 -308 309 0
85 -88 96 -309 0
-42 77 83 310 0
-42 77 83 -310 0
-9 -13 -17 311 0
-17 44 -68 -311 0
-46 -56 67 68 0
-3 -20 27 312 0
27 32 -312 313 0
32 -37 -313 314 0
-37 47 -314 315 0
47 -68 81 -315 0
1 12 21 316 0
21 64 98 -316 0
2 -5 11 317 0
11 -17 -317 318 0
-17 37 -318 319 0
37 84 -319 320 0
84 -86 -320 321 0
-86 -91 95 -321 0
38 55 -73 322 0
-73 -86 90 -322 0
-23 -43 -46 -62 0
-10 -40 -49 -69 0
28 39 -40 323 0
-40 -50 -323 324 0
-50 -53 -324 325 0
-53 56 -325 326 0
56 -64 -66 -326 0
-23 38 60 327 0
60 -83 -87 -327 0
21 -31 -39 328 0
-39 -44 -328 329 0
-44 -76 89 -329 0
-14 -67 -69 93 0
-6 19 330 331 0
-6 19 330 -331 0
-6 19 -330 331 0
-6 19 -330 -331 0
-22 26 -78 -81 0
18 23 82 332 0
18 23 82 -332 0
-30 -70 95 333 0
-30 -70 95 -333 0
-5 10 76 334 0
-5 10 76 -334 0
42 76 -90 335 0
42 76 -90 -335 0
22 23 -35 336 0
-35 -65 -336 337 0
-65 -77 94 -337 0
-5 19 22 338 0
22 24 -338 339 0
24 56 -339 340 0
56 94 -100 -340 0
8 28 31 341 0
31 32 -341 342 0
32 -64 -342 343 0
-64 66 -343 344 0
66 -86 90 -344 0
18 -88 345 346 0
18 -88 345 -346 0
18 -88 -345 346 0
18 -88 -345 -346 0
5 16 -62 347 0
-62 82 -96 -347 0
-21 24 -73 348 0
-21 24 -73 -348 0
37 -89 349 350 0
37 -89 349 -350 0
37 -89 -349 350 0
37 -89 -349 -350 0
13 15 17 351 0
17 52 -351 352 0
52 -61 -352 353 0
-61 64 -353 354 0
64 84 85 -354 0
11 16 -58 94 0
-2 -12 355 356 0
-2 -12 355 -356 0
-2 -12 -355 356 0
-2 -12 -355 -356 0
40 -49 -61 -89 0
-13 72 83 357 0
-13 72 83 -357 0
-22 31 41 358 0
41 -71 77 -358 0
5 -11 67 359 0
67 86 87 -359 0
8 -10 -43 360 0
-43 -63 -360 361 0
-63 74 -361 362 0
74 -79 -362 363 0
-79 -98 100 -363 0
-7 9 45 364 0
-7 9 45 -364 0
-15 -37 -47 365 0
-47 90 92 -365 0
-10 -33 -48 366 0
-10 -33 -48 -366 0
-5 27 66 367 0
-5 27 66 -367 0
-24 -26 -49 368 0
-49 51 -52 -368 0
30 68 -69 369 0
-69 -83 93 -369 0
-11 42 69 370 0
69 78 -370 371 0
78 -90 -94 -371 0
7 63 -66 372 0
7 63 -66 -372 0
53 64 75 78 0
32 -46 50 373 0
50 -61 -66 -373 0
15 -22 -31 374 0
-31 -48 -53 -374 0
15 71 72 375 0
72 -88 -375 376 0
-88 92 94 -376 0
-6 17 18 377 0
18 -33 -377 378 0
-33 -36 -378 379 0
-36 63 100 -379 0
20 -35 -44 -81 0
-16 28 -29 380 0
-29 95 98 -380 0
-20 22 23 381 0
23 -25 -381 382 0
-25 27 -382 383 0
27 28 -383 384 0
28 -30 -384 385 0
-30 -35 95 -385 0
-15 81 -87 -99 0
-73 94 386 387 0
-73 94 386 -387 0
-73 94 -386 387 0
-73 94 -386 -387 0
1 -24 -33 388 0
-33 45 -388 389 0
45 56 -74 -389 0
-8 -58 66 390 0
66 67 86 -390 0
-1 19 -37 72 0
11 -51 56 73 0
-5 -21 -29 391 0
-29 57 94 -391 0
5 -9 -48 392 0
-48 54 -392 393 0
54 76 90 -393 0
9 -20 31 394 0
31 -70 -77 -394 0
-43 -48 95 395 0
-43 -48 95 -395 0
1 12 -26 396 0
-26 -29 -396 397 0
-29 39 -397 398 0
39 65 97 -398 0
5 14 78 399 0
78 85 -399 400 0
85 94 96 -400 0
-1 -32 -41 401 0
-41 52 -401 402 0
52 53 -402 403 0
53 60 -403 404 0
60 -70 -97 -404 0
-24 43 -48 405 0
-48 59 -405 406 0
59 -76 81 -406 0
1 -18 59 407 0
59 63 -92 -407 0
-32 -45 64 -76 0
-47 66 99 408 0
-47 66 99 -408 0
44 54 68 409 0
68 -74 -409 410 0
-74 77 -410 411 0
77 95 -97 -411 0
-33 53 82 412 0
-33 53 82 -412 0
15 16 -21 413 0
-21 -35 -413 414 0
-35 43 -414 415 0
43 -45 -95 -415 0
57 99 416 417 0
57 99 416 -417 0
57 99 -416 417 0
57 99 -416 -417 0
-3 7 -39 50 0
22 -37 -42 418 0
-42 -46 -418 419 0
-46 59 -419 420 0
59 64 -420 421 0
64 -77 81 -421 0
24 -31 -99 422 0
24 -31 -99 -422 0
7 42 -52 423 0
-52 -63 -100 -423 0
41 43 61 424 0
61 97 -100 -424 0
2 27 -58 425 0
2 27 -58 -425 0
16 66 69 -96 0
-52 55 -65 426 0
-52 55 -65 -426 0
39 40 71 427 0
39 40 71 -427 0
38 44 59 428 0
59 74 -428 429 0
74 81 -86 -429 0
-21 -38 -98 430 0
-21 -38 -98 -430 0
-11 30 35 431 0
35 44 -431 432 0
44 -56 -432 433 0
-56 -97 100 -433 0
-7 18 20 434 0
20 -41 -434 435 0
-41 -43 -435 436 0
-43 52 -436 437 0
52 -58 -62 -437 0
-10 61 66 -81 0
19 46 -81 438 0
19 46 -81 -438 0
-4 35 91 439 0
-4 35 91 -439 0
-58 -68 -91 98 0
24 27 -34 440 0
-34 40 -440 441 0
40 92 -96 -441 0
43 57 58 -93 0
6 -9 -33 442 0
-33 -37 -442 443 0
-37 65 -443 444 0
65 66 -444 445 0
66 -73 -445 446 0
-73 -78 -84 -446 0
20 22 39 447 0
39 -52 -447 448 0
-52 59 -448 449 0
59 -60 -97 -449 0
5 -15 31 450 0
31 -42 -450 451 0
-42 -74 -451 452 0
-74 -80 -93 -452 0
-14 59 66 -67 0
9 -28 -48 453 0
-48 53 -453 454 0
53 -60 -454 455 0
-60 -75 -455 456 0
-75 -79 -84 -456 0
-9 11 51 457 0
51 -77 -457 458 0
-77 -91 -458 459 0
-91 -95 -99 -459 0
62 69 -80 460 0
62 69 -80 -460 0
3 4 39 461 0
39 -52 -461 462 0
-52 -79 -462 463 0
-79 -82 95 -463 0
10 14 -20 464 0
-20 -44 -464 465 0
-44 91 -96 -465 0
-5 -22 48 466 0
48 -58 -466 467 0
-58 78 -467 468 0
78 80 -468 469 0
80 93 94 -469 0
73 86 89 91 0
2 -21 -62 470 0
-62 -85 -91 -470 0
-10 -20 -31 471 0
-31 74 -471 472 0
74 75 -81 -472 0
33 71 97 473 0
33 71 97 -473 0
-6 33 -54 474 0
-54 62 -474 475 0
62 84 90 -475 0
-3 -26 -45 476 0
-45 58 -99 -476 0
1 -2 -13 477 0
-13 -28 -477 478 0
-28 -31 -478 479 0
-31 -52 -479 480 0
-52 -64 -480 481 0
-64 88 -481 482 0
88 89 -100 -482 0
1 2 30 483 0
30 62 -483 484 0
62 -67 74 -484 0
10 -39 42 485 0
42 -51 -485 486 0
-51 -54 -486 487 0
-54 -90 -95 -487 0
4 33 -48 52 0
-8 17 -18 488 0
-18 -21 -99 -488 0
-23 33 86 489 0
-23 33 86 -489 0
-2 -9 -48 490 0
-2 -9 -48 -490 0
20 32 56 491 0
56 -57 -491 492 0
-57 74 -492 493 0
74 75 -493 494 0
75 86 94 -494 0
2 20 -26 495 0
-26 -70 -495 496 0
-70 74 -496 497 0
74 -82 -497 498 0
-82 85 -86 -498 0
5 -27 -31 499 0
-31 -43 -86 -499 0
4 67 -80 97 0
32 -63 -72 500 0
32 -63 -72 -500 0
14 -76 -78 84 0
-1 40 41 501 0
41 -50 -501 502 0
-50 -73 -79 -502 0
10 34 51 503 0
51 61 -503 504 0
61 62 -504 505 0
62 -65 -505 506 0
-65 -75 90 -506 0
4 -43 46 507 0
46 -52 55 -507 0
1 10 -48 64 0
54 -61 70 -77 0
-4 -21 39 508 0
-4 -21 39 -508 0
30 -34 -56 509 0
-56 59 -509 510 0
59 65 -510 511 0
65 -72 -511 512 0
-72 -75 96 -512 0
-8 11 -23 513 0
-23 36 -513 514 0
36 -41 -514 515 0
-41 -57 -515 516 0
-57 60 -516 517 0
60 -63 -93 -517 0
7 -29 -38 518 0
-38 49 -518 519 0
49 -50 -68 -519 0
-15 17 56 95 0
5 60 87 520 0
5 60 87 -520 0
-24 -50 521 522 0
-24 -50 521 -522 0
-24 -50 -521 522 0
-24 -50 -521 -522 0
-43 58 -95 523 0
-43 58 -95 -523 0
17 -23 -65 524 0
17 -23 -65 -524 0
10 -14 -33 525 0
-33 -42 -525 526 0
-42 62 -526 527 0
62 -76 -88 -527 0
-10 18 -56 528 0
-56 -70 -528 529 0
-70 76 83 -529 0
-4 17 42 530 0
-4 17 42 -530 0
-2 9 531 532 0
-2 9 531 -532 0
-2 9 -531 532 0
-2 9 -531 -532 0
17 27 -55 533 0
-55 71 -533 534 0
71 86 -92 -534 0
34 -35 -57 81 0
-47 -58 -63 535 0
-47 -58 -63 -535 0
-41 -96 536 537 0
-41 -96 536 -537 0
-41 -96 -536 537 0
-41 -96 -536 -537 0
37 -50 -65 538 0
37 -50 -65 -538 0
11 13 -21 539 0
-21 -39 -539 540 0
-39 42 -540 541 0
42 -52 -541 542 0
-52 67 85 -542 0
12 -49 -61 543 0
-61 -67 -543 544 0
-67 90 95 -544 0
52 92 97 545 0
52 92 97 -545 0
10 -30 44 546 0
44 -46 -66 -546 0
52 -53 65 547 0
52 -53 65 -547 0
18 34 36 548 0
36 -58 -548 549 0
-58 61 -549 550 0
61 63 -84 -550 0
41 -46 74 551 0
74 85 -551 552 0
85 -87 -91 -552 0
-19 -58 62 553 0
62 -79 92 -553 0
-4 -16 36 554 0
36 -46 -84 -554 0
-35 -44 50 555 0
-35 -44 50 -555 0
-3 7 -20 556 0
-20 44 -556 557 0
44 46 99 -557 0
-4 54 67 558 0
67 -87 -96 -558 0
-29 -58 -69 559 0
-69 -86 89 -559 0
-5 8 -47 -79 0
-16 -27 38 560 0
38 -80 100 -560 0
-26 31 -44 561 0
-44 62 -561 562 0
62 -72 -562 563 0
-72 76 -563 564 0
76 79 -564 565 0
79 -81 -90 -565 0
9 65 70 77 0
2 9 10 71 0
-4 7 -20 566 0
-20 -37 -566 567 0
-37 -74 84 -567 0
53 61 64 71 0
16 35 -41 568 0
-41 -58 -568 569 0
-58 -60 -99 -569 0
44 -61 -66 570 0
-66 69 -570 571 0
69 83 -94 -571 0
9 -34 52 572 0
52 55 -572 573 0
55 61 -77 -573 0
5 -39 -68 -94 0
10 -24 59 574 0
59 -61 94 -574 0
7 47 68 69 0
8 49 64 575 0
64 76 98 -575 0
63 -66 576 577 0
63 -66 576 -577 0
63 -66 -576 577 0
63 -66 -576 -577 0
31 -48 -92 -96 0
4 -27 -31 578 0
-31 -43 100 -578 0
-22 24 -25 579 0
-25 35 -579 580 0
35 -39 -580 581 0
-39 -42 -581 582 0
-42 46 -82 -582 0
-6 45 69 583 0
69 72 -583 584 0
72 75 -78 -584 0
3 -8 84 -95 0
-12 17 21 585 0
21 -33 -585 586 0
-33 35 -586 587 0
35 39 85 -587 0
-18 40 44 588 0
44 56 -73 -588 0
-5 -57 -76 93 0
-37 86 96 589 0
-37 86 96 -589 0
21 82 86 -89 0
-1 12 18 590 0
18 21 -590 591 0
21 23 -591 592 0
23 -37 -53 -592 0
-15 -20 -33 86 0
2 -5 -18 593 0
-18 -60 -593 594 0
-60 -65 -594 595 0
-65 -72 -91 -595 0
-12 -35 97 596 0
-12 -35 97 -596 0
24 86 -88 -91 0
43 67 -77 597 0
43 67 -77 -597 0
17 18 -33 598 0
-33 71 79 -598 0
15 31 599 600 0
15 31 599 -600 0
15 31 -599 600 0
15 31 -599 -600 0
5 85 -94 601 0
5 85 -94 -601 0
-29 76 -88 602 0
-88 92 -602 603 0
92 94 -97 -603 0
-51 86 92 604 0
-51 86 92 -604 0
-18 -22 -26 605 0
-26 53 -77 -605 0
-55 -65 76 77 0
7 -12 -29 606 0
-29 36 -606 607 0
36 41 -607 608 0
41 -46 -608 609 0
-46 56 -609 610 0
56 -77 90 -610 0
4 10 21 611 0
21 30 73 -611 0
11 -14 20 612 0
20 -26 -612 613 0
-26 46 -613 614 0
46 93 -614 615 0
93 -95 -100 -615 0
47 64 -82 616 0
-82 -95 99 -616 0
-32 -52 -55 -71 0
-19 -49 -58 -78 0
37 48 -49 617 0
-49 -59 -617 618 0
-59 -62 -618 619 0
-62 65 -619 620 0
65 -73 -75 -620 0
-32 47 69 621 0
69 -92 -96 -621 0
2 30 -40 622 0
-40 -48 -622 623 0
-48 -53 -623 624 0
-53 -85 98 -624 0
-23 -76 -78 625 0
-23 -76 -78 -625 0
-15 28 626 627 0
-15 28 626 -627 0
-15 28 -626 627 0
-15 28 -626 -627 0
-31 35 -87 -90 0
4 27 32 91 0
-39 -79 628 629 0
-39 -79 628 -629 0
-39 -79 -628 629 0
-39 -79 -628 -629 0
-14 19 85 630 0
-14 19 85 -630 0
9 51 85 -99 0
3 -9 31 631 0
31 32 -631 632 0
32 -44 -632 633 0
-44 -74 -86 -633 0
-14 28 31 634 0
31 33 65 -634 0
17 37 40 635 0
40 41 -635 636 0
41 -73 -636 637 0
-73 75 -637 638 0
75 -95 99 -638 0
-5 27 -97 639 0
-5 27 -97 -639 0
14 25 -71 91 0
-30 33 -82 640 0
-30 33 -82 -640 0
46 -98 641 642 0
46 -98 641 -642 0
46 -98 -641 642 0
46 -98 -641 -642 0
3 22 24 643 0
24 26 -643 644 0
26 61 -644 645 0
61 -70 -645 646 0
-70 73 -646 647 0
73 93 94 -647 0
20 25 -67 648 0
20 25 -67 -648 0
-11 -21 649 650 0
-11 -21 649 -650 0
-11 -21 -649 650 0
-11 -21 -649 -650 0
49 -58 -70 -98 0
-22 81 92 651 0
-22 81 92 -651 0
-31 40 50 652 0
50 -80 86 -652 0
-7 9 14 653 0
14 -20 -653 654 0
-20 76 -654 655 0
76 95 96 -655 0
17 -19 -52 656 0
-52 -72 -656 657 0
-72 83 -88 -657 0
1 -16 18 54 0
-24 -46 -56 99 0
-19 -42 -57 658 0
-19 -42 -57 -658 0
-1 -14 36 75 0
2 -33 -35 659 0
-35 -58 -659 660 0
-58 60 -61 -660 0
-3 39 77 661 0
77 -78 -92 -661 0
-20 51 78 662 0
78 87 -99 -662 0
16 72 -75 663 0
16 72 -75 -663 0
62 73 84 87 0
41 -55 59 664 0
59 -70 -75 -664 0
1 3 24 665 0
24 -31 -665 666 0
-31 -40 -666 667 0
-40 -57 -62 -667 0
9 24 80 668 0
80 81 -97 -668 0
-15 26 27 669 0
27 -42 -669 670 0
-42 -45 72 -670 0
4 7 29 671 0
29 -44 -671 672 0
-44 -53 -90 -672 0
4 -25 37 -38 0
-8 -29 31 673 0
31 32 -673 674 0
32 -34 -674 675 0
-34 36 -675 676 0
36 37 -676 677 0
37 -39 -44 -677 0
3 -24 90 -96 0
10 -33 -42 678 0
-42 54 -678 679 0
54 65 -83 -679 0
-17 -67 75 680 0
75 76 95 -680 0
-10 28 -46 81 0
3 20 -60 681 0
-60 65 82 -681 0
-14 -30 -38 66 0
14 -18 -57 682 0
-57 63 -682 683 0
63 85 99 -683 0
4 18 -29 684 0
-29 40 -684 685 0
40 -79 -86 -685 0
6 -52 -57 686 0
6 -52 -57 -686 0
3 5 10 687 0
10 21 -687 688 0
21 -35 -688 689 0
-35 -38 -689 690 0
-38 48 74 -690 0
-6 14 23 691 0
23 87 94 -691 0
-10 -41 -50 692 0
-50 61 -692 693 0
61 62 -693 694 0
62 69 -79 -694 0
-1 -33 52 695 0
52 -57 -695 696 0
-57 68 -696 697 0
68 -85 90 -697 0
10 -27 68 72 0
8 -41 -54 698 0
-54 73 -85 -698 0
4 -6 -56 75 0
53 63 77 699 0
77 -83 86 -699 0
-4 -42 62 91 0
24 25 -30 700 0
-30 -44 -700 701 0
-44 52 -54 -701 0
8 36 702 703 0
8 36 702 -703 0
8 36 -702 703 0
8 36 -702 -703 0
-12 16 -48 59 0
-8 31 -46 704 0
-46 -51 -704 705 0
-51 -55 -705 706 0
-55 68 -706 707 0
68 73 -707 708 0
73 -86 90 -708 0
-9 33 -40 709 0
-9 33 -40 -709 0
6 -9 16 710 0
16 51 -710 711 0
51 -61 -72 -711 0
50 52 70 712 0
50 52 70 -712 0
-5 11 36 -67 0
25 75 78 713 0
25 75 78 -713 0
-61 64 -74 714 0
-61 64 -74 -714 0
48 49 80 715 0
48 49 80 -715 0
-7 47 53 716 0
53 68 -716 717 0
68 83 -717 718 0
83 90 -95 -718 0
-6 9 -30 -47 0
-20 39 44 719 0
44 53 -65 -719 0
-16 27 29 720 0
29 -50 -720 721 0
-50 -52 -721 722 0
-52 61 -722 723 0
61 -67 -71 -723 0
-19 70 75 -90 0
28 55 -90 724 0
28 55 -90 -724 0
7 -13 44 100 0
1 -5 -67 725 0
-67 -77 -100 -725 0
-2 33 36 726 0
36 -43 49 -726 0
52 66 67 727 0
52 66 67 -727 0
-6 15 -18 728 0
-18 -42 -728 729 0
-42 -46 -729 730 0
-46 74 -730 731 0
74 75 -731 732 0
75 -82 -732 733 0
-82 -87 -93 -733 0
-2 29 31 734 0
31 48 -734 735 0
48 -61 -735 736 0
-61 68 -69 -736 0
14 -24 40 737 0
40 -51 -737 738 0
-51 -83 -89 -738 0
-23 68 75 -76 0
-4 -8 18 739 0
18 -37 -739 740 0
-37 -57 -740 741 0
-57 62 -741 742 0
62 -69 -742 743 0
-69 -84 -743 744 0
-84 -88 -93 -744 0
-18 20 60 745 0
60 -86 -100 -745 0
4 71 78 -89 0
-5 12 13 746 0
13 48 -746 747 0
48 -61 -747 748 0
-61 -88 -91 -748 0
2 3 19 749 0
19 23 -749 750 0
23 -29 -750 751 0
-29 -53 100 -751 0
-14 -31 57 752 0
57 -67 -752 753 0
-67 87 89 -753 0
82 95 98 100 0
11 -30 -71 754 0
-71 -94 -100 -754 0
6 -19 -29 755 0
-29 -40 -755 756 0
-40 83 -756 757 0
83 84 -90 -757 0
42 80 758 759 0
42 80 758 -759 0
42 80 -758 759 0
42 80 -758 -759 0
-8 -15 42 760 0
42 -63 -760 761 0
-63 71 -761 762 0
71 93 99 -762 0
-12 -35 -54 67 0
-9 99 763 764 0
-9 99 763 -764 0
-9 99 -763 764 0
-9 99 -763 -764 0
10 -11 -22 765 0
-22 -37 -765 766 0
-37 -40 -766 767 0
-40 -61 -767 768 0
-61 -73 -768 769 0
-73 97 98 -769 0
-4 10 11 770 0
11 39 -770 771 0
39 71 -771 772 0
71 -76 83 -772 0
19 -48 51 773 0
51 -60 -773 774 0
-60 -63 -99 -774 0
-8 13 42 775 0
42 -57 61 -775 0
-17 26 -27 -30 0
-32 42 95 776 0
-32 42 95 -776 0
3 -11 -18 -57 0
29 41 65 777 0
65 -66 -777 778 0
-66 83 -778 779 0
83 84 95 -779 0
11 29 -35 780 0
-35 -79 -780 781 0
-79 83 -781 782 0
83 -91 -782 783 0
-91 94 -95 -783 0
14 -36 -40 784 0
-40 -52 -95 -784 0
6 30 785 786 0
6 30 785 -786 0
6 30 -785 786 0
6 30 -785 -786 0
13 76 -89 787 0
13 76 -89 -787 0
41 -72 -81 788 0
41 -72 -81 -788 0
23 -85 -87 93 0
-10 49 50 789 0
50 -59 -789 790 0
-59 -82 -88 -790 0
19 43 60 791 0
60 70 -791 792 0
70 71 -792 793 0
71 -74 -793 794 0
-74 -84 99 -794 0
13 -52 55 795 0
55 -61 64 -795 0
10 19 -57 73 0
63 -70 79 -86 0
5 -13 -30 48 0
-2 39 -43 796 0
-43 -65 -796 797 0
-65 68 -797 798 0
68 74 -798 799 0
74 -81 -84 -799 0
-17 20 -32 800 0
-32 45 -800 801 0
45 -50 -801 802 0
-50 -66 -802 803 0
-66 69 -72 -803 0
4 16 -38 804 0
-38 -47 -804 805 0
-47 58 -805 806 0
58 -59 -77 -806 0
-24 26 65 807 0
-24 26 65 -807 0
14 69 96 808 0
14 69 96 -808 0
-4 -33 -59 809 0
-4 -33 -59 -809 0
-52 67 810 811 0
-52 67 810 -811 0
-52 67 -810 811 0
-52 67 -810 -811 0
26 -32 -74 812 0
26 -32 -74 -812 0
19 -23 -42 813 0
-42 -51 -813 814 0
-51 71 -814 815 0
71 -85 -97 -815 0
-19 27 -65 816 0
-65 -79 -816 817 0
-79 85 92 -817 0
-13 26 51 818 0
-13 26 51 -818 0
-1 -11 18 819 0
-1 -11 18 -819 0
26 36 -64 820 0
-64 80 95 -820 0
43 -44 -66 90 0
-5 -56 -67 -72 0
46 -59 -74 821 0
46 -59 -74 -821 0
4 20 22 822 0
22 -30 -822 823 0
-30 -48 -823 824 0
-48 51 -824 825 0
51 -61 -825 826 0
-61 76 94 -826 0
1 6 21 827 0
21 -58 -827 828 0
-58 -70 -828 829 0
-70 -76 99 -829 0
19 -39 53 830 0
53 -55 -75 -830 0
61 -62 74 831 0
61 -62 74 -831 0
27 43 45 832 0
45 -67 -832 833 0
-67 70 -833 834 0
70 72 -93 -834 0
1 50 -55 835 0
-55 83 -835 836 0
83 94 -836 837 0
94 -96 -100 -837 0
-28 -67 71 -88 0
-13 -25 45 838 0
45 -55 -93 -838 0
8 -44 -53 59 0
-5 -12 16 839 0
16 -29 -839 840 0
-29 53 55 -840 0
-13 63 76 -96 0
-38 -67 -78 841 0
-78 -95 98 -841 0
9 -14 17 842 0
17 -56 -88 -842 0
-25 -36 47 -89 0
-35 40 -53 843 0
-53 71 -843 844 0
71 -81 -844 845 0
-81 85 -845 846 0
85 88 -846 847 0
88 -90 -99 -847 0
18 74 79 86 0
11 18 19 80 0
-13 16 -29 848 0
-29 -46 -848 849 0
-46 -83 93 -849 0
-8 62 70 850 0
70 73 80 -850 0
-3 25 44 851 0
44 -50 -851 852 0
-50 -67 -69 -852 0
53 -70 -75 853 0
-75 78 92 -853 0
-3 18 -43 854 0
-43 61 -854 855 0
61 64 -855 856 0
64 70 -86 -856 0
3 14 -48 -77 0
19 -33 68 -70 0
7 16 56 857 0
56 77 78 -857 0
17 58 73 85 0
-6 72 -75 858 0
-6 72 -75 -858 0
-1 -5 859 860 0
-1 -5 859 -860 0
-1 -5 -859 860 0
-1 -5 -859 -860 0
9 40 -57 861 0
9 40 -57 -861 0
13 -36 -40 -52 0
-31 33 -34 862 0
-34 44 -862 863 0
44 -48 -863 864 0
-48 -51 -864 865 0
-51 55 -91 -865 0
-4 -15 54 866 0
54 78 -866 867 0
78 81 -867 868 0
81 84 -87 -868 0
12 -17 93 869 0
12 -17 93 -869 0
-21 26 30 870 0
30 -42 -870 871 0
-42 44 -871 872 0
44 48 94 -872 0
2 -27 49 873 0
49 53 -873 874 0
53 65 -82 -874 0
5 -14 -66 -85 0
-46 95 875 876 0
-46 95 875 -876 0
-46 95 -875 876 0
-46 95 -875 -876 0
30 91 95 -98 0
-10 21 27 877 0
27 30 -877 878 0
30 32 -878 879 0
32 -46 -62 -879 0
-24 -29 -42 95 0
6 11 -14 880 0
-14 -27 -880 881 0
-27 -69 -881 882 0
-69 -74 -882 883 0
-74 -81 -100 -883 0
-21 -44 884 885 0
-21 -44 884 -885 0
-21 -44 -884 885 0
-21 -44 -884 -885 0
33 95 -97 -100 0
52 76 -86 886 0
52 76 -86 -886 0
26 27 -42 887 0
-42 80 88 -887 0
-3 24 40 888 0
-3 24 40 -888 0
1 3 -6 889 0
-6 14 94 -889 0
1 -38 85 -97 0
-60 95 890 891 0
-60 95 890 -891 0
-60 95 -890 891 0
-60 95 -890 -891 0
-27 -31 -35 892 0
-35 62 -86 -892 0
-64 -74 85 86 0
16 -21 -38 893 0
-38 45 -893 894 0
45 50 -894 895 0
50 -55 -895 896 0
-55 65 -896 897 0
65 -86 99 -897 0
2 -4 -9 898 0
-9 13 -898 899 0
13 19 -899 900 0
19 30 -900 901 0
30 39 82 -901 0
-4 8 20 902 0
20 -23 -902 903 0
-23 29 -903 904 0
29 -35 55 -904 0
56 73 -91 905 0
56 73 -91 -905 0
-41 -61 -64 -80 0
-28 -58 -67 -87 0
-1 -5 46 906 0
46 57 -906 907 0
57 -58 -907 908 0
-58 -68 -908 909 0
-68 -71 -909 910 0
-71 74 -910 911 0
74 -82 -84 -911 0
7 -41 56 78 0
11 39 -49 912 0
-49 -57 -912 913 0
-57 -62 -94 -913 0
-32 -85 -87 914 0
-32 -85 -87 -914 0
-24 37 915 916 0
-24 37 915 -916 0
-24 37 -915 916 0
-24 37 -915 -916 0
-40 44 -96 -99 0
13 36 41 100 0
-48 -88 917 918 0
-48 -88 917 -918 0
-48 -88 -917 918 0
-48 -88 -917 -918 0
-8 -23 28 94 0
18 60 94 919 0
18 60 94 -919 0
12 -18 40 920 0
40 41 -920 921 0
41 -53 -921 922 0
-53 -83 -95 -922 0
-4 8 -23 923 0
-23 37 -923 924 0
37 40 -924 925 0
40 42 74 -925 0
-6 26 46 926 0
46 49 -926 927 0
49 50 -927 928 0
50 -82 84 -928 0
-14 36 929 930 0
-14 36 929 -930 0
-14 36 -929 930 0
-14 36 -929 -930 0
23 34 -80 100 0
-7 -39 42 -91 0
2 3 55 931 0
2 3 55 -931 0
12 31 33 932 0
33 35 -932 933 0
35 70 -933 934 0
70 -79 82 -934 0
29 34 -76 935 0
29 34 -76 -935 0
-7 -20 -30 936 0
-7 -20 -30 -936 0
1 58 -67 -79 0
-31 90 937 938 0
-31 90 937 -938 0
-31 90 -937 938 0
-31 90 -937 -938 0
4 5 -40 939 0
-40 49 -939 940 0
49 59 -940 941 0
59 -89 95 -941 0
-16 18 23 942 0
23 -29 85 -942 0
26 -28 -61 943 0
-61 -81 -943 944 0
-81 92 -97 -944 0
8 10 -25 945 0
-25 27 63 -945 0
-33 -55 -65 946 0
-33 -55 -65 -946 0
-28 -51 -66 947 0
-28 -51 -66 -947 0
-10 -23 45 84 0
-1 11 -42 948 0
-42 -44 -948 949 0
-44 -67 -949 950 0
-67 69 -70 -950 0
-8 -12 48 951 0
48 86 -87 -951 0
-29 60 87 96 0
25 81 -84 952 0
25 81 -84 -952 0
71 82 93 96 0
50 -64 68 953 0
68 -79 -84 -953 0
-6 10 12 954 0
12 33 -954 955 0
33 -40 -955 956 0
-40 -49 -956 957 0
-49 -66 -71 -957 0
18 33 89 90 0
-24 35 36 958 0
36 -51 -958 959 0
-51 -54 81 -959 0
13 16 38 960 0
38 -53 -960 961 0
-53 -62 -99 -961 0
13 -34 46 -47 0
-5 -17 -38 962 0
-38 40 -962 963 0
40 41 -963 964 0
41 -43 -964 965 0
-43 45 -965 966 0
45 46 -966 967 0
46 -48 -53 -967 0
12 -33 99 968 0
12 -33 99 -968 0
4 19 -42 969 0
-42 -51 -969 970 0
-51 63 -970 971 0
63 74 -92 -971 0
-26 -76 84 85 0
-19 37 -55 90 0
12 29 -69 972 0
-69 74 91 -972 0
8 -23 -39 973 0
-39 -47 75 -973 0
23 -27 -66 974 0
-66 72 94 -974 0
13 27 -38 975 0
-38 49 -975 976 0
49 -88 -95 -976 0
15 -61 -66 977 0
15 -61 -66 -977 0
3 12 14 978 0
14 19 -978 979 0
19 30 -979 980 0
30 -44 -980 981 0
-44 -47 -981 982 0
-47 57 83 -982 0
-15 23 32 96 0
-19 -50 -59 983 0
-59 70 -983 984 0
70 71 -984 985 0
71 78 -88 -985 0
-10 -42 61 986 0
61 -66 -986 987 0
-66 77 -987 988 0
77 -94 99 -988 0
19 -36 77 81 0
17 -50 -63 989 0
-63 82 -94 -989 0
13 -15 -65 84 0
62 72 86 990 0
86 -92 95 -990 0
-13 -51 71 100 0
33 34 -39 991 0
-39 -53 -991 992 0
-53 61 -63 -992 0
17 45 993 994 0
17 45 993 -994 0
17 45 -993 994 0
17 45 -993 -994 0
-21 25 -57 68 0
-17 40 -55 995 0
-55 -60 -995 996 0
-60 -64 -996 997 0
-64 77 -997 998 0
77 82 -998 999 0
82 -95 99 -999 0
-18 42 -49 1000 0
-18 42 -49 -1000 0
15 -18 25 1001 0
25 60 -1001 1002 0
60 -70 -81 -1002 0
59 61 79 1003 0
59 61 79 -1003 0
-14 20 45 -76 0
34 84 87 1004 0
34 84 87 -1004 0
-70 73 -83 1005 0
-70 73 -83 -1005 0
-4 57 58 89 0
-16 56 62 1006 0
62 77 -1006 1007 0
77 92 99 -1007 0
-15 18 -39 -56 0
-29 48 53 1008 0
53 62 -74 -1008 0
-25 36 38 1009 0
38 -59 -1009 1010 0
-59 -61 -1010 1011 0
-61 70 -1011 1012 0
70 -76 -80 -1012 0
-28 79 84 -99 0
9 37 64 -99 0
-9 16 -22 53 0
10 -14 -76 -86 0
-11 42 45 1013 0
45 -52 58 -1013 0
-2 61 75 76 0
-15 24 -27 1014 0
-27 -51 -1014 1015 0
-51 -55 -1015 1016 0
-55 83 -1016 1017 0
83 84 -1017 1018 0
84 -91 -96 -1018 0
-11 38 40 1019 0
40 57 -1019 1020 0
57 -70 -1020 1021 0
-70 77 -78 -1021 0
23 -33 49 1022 0
49 -60 -1022 1023 0
-60 -92 -98 -1023 0
-2 -32 77 1024 0
77 84 -85 -1024 0
-9 -13 -17 1025 0
-17 27 -1025 1026 0
27 -46 -1026 1027 0
-46 -66 -1027 1028 0
-66 71 -1028 1029 0
71 -78 -1029 1030 0
-78 -93 -97 -1030 0
-27 29 69 -95 0
13 80 87 -98 0
9 -14 21 1031 0
21 22 -1031 1032 0
22 57 -1032 1033 0
57 -70 -1033 1034 0
-70 -97 -100 -1034 0
11 12 28 1035 0
28 32 -1035 1036 0
32 -38 -62 -1036 0
4 7 9 1037 0
9 -23 -1037 1038 0
-23 -40 -1038 1039 0
-40 66 -1039 1040 0
66 -76 -1040 1041 0
-76 96 98 -1041 0
-3 -9 91 1042 0
-3 -9 91 -1042 0
20 -39 -80 1043 0
20 -39 -80 -1043 0
15 -28 -38 1044 0
-38 -49 -1044 1045 0
-49 92 -1045 1046 0
92 93 -99 -1046 0
2 8 51 89 0
-17 -24 51 1047 0
51 -72 80 -1047 0
8 -21 -44 1048 0
-44 -63 76 -1048 0
6 7 -18 1049 0
6 7 -18 -1049 0
19 -20 -31 1050 0
-31 -46 -1050 1051 0
-46 -49 -1051 1052 0
-49 -70 -82 -1052 0
-8 -13 19 1053 0
19 20 -1053 1054 0
20 48 -1054 1055 0
48 80 -1055 1056 0
80 -85 92 -1056 0
28 -57 60 1057 0
60 -69 -72 -1057 0
-17 22 51 1058 0
51 -66 70 -1058 0
4 -26 35 1059 0
35 -36 -39 -1059 0
-41 51 1060 1061 0
-41 51 1060 -1061 0
-41 51 -1060 1061 0
-41 51 -1060 -1061 0
4 12 -20 1062 0
-20 -27 -66 -1062 0
3 -4 38 1063 0
38 50 -1063 1064 0
50 74 -1064 1065 0
74 -75 -1065 1066 0
-75 92 93 -1066 0
-4 20 38 1067 0
38 -44 -1067 1068 0
-44 -88 -1068 1069 0
-88 92 -100 -1069 0
23 -45 -49 -61 0
15 39 1070 1071 0
15 39 1070 -1071 0
15 39 -1070 1071 0
15 39 -1070 -1071 0
22 85 -98 1072 0
22 85 -98 -1072 0
2 50 -81 -90 0
32 -94 -96 1073 0
32 -94 -96 -1073 0
8 -19 58 1074 0
58 59 -1074 1075 0
59 -68 -1075 1076 0
-68 -91 -97 -1076 0
28 52 69 1077 0
69 79 -1077 1078 0
79 80 -1078 1079 0
80 -83 -93 -1079 0
22 -61 64 1080 0
64 -70 73 -1080 0
19 28 -66 82 0
72 -79 88 -95 0
14 -22 -39 57 0
-11 48 -52 1081 0
-52 -74 -1081 1082 0
-74 77 -1082 1083 0
77 83 -1083 1084 0
83 -90 -93 -1084 0
-26 29 -41 1085 0
-41 54 -1085 1086 0
54 -59 -1086 1087 0
-59 -75 -1087 1088 0
-75 78 -81 -1088 0
13 25 -47 1089 0
-47 -56 -1089 1090 0
-56 67 -1090 1091 0
67 -68 -86 -1091 0
5 -33 35 74 0
23 78 1092 1093 0
23 78 1092 -1093 0
23 78 -1092 1093 0
23 78 -1092 -1093 0
-13 -42 -68 1094 0
-13 -42 -68 -1094 0
-61 76 1095 1096 0
-61 76 1095 -1096 0
-61 76 -1095 1096 0
-61 76 -1095 -1096 0
-6 35 -41 -83 0
1 28 -32 1097 0
-32 -51 -1097 1098 0
-51 -60 -1098 1099 0
-60 80 -94 -1099 0
-28 36 -74 1100 0
-74 -88 94 -1100 0
-22 35 60 1101 0
-22 35 60 -1101 0
4 -10 -20 27 0
35 45 -73 89 0
52 -53 -75 99 0
-14 -65 -76 -81 0
3 55 -68 -83 0
8 13 29 1102 0
29 31 -1102 1103 0
31 -39 -1103 1104 0
-39 -57 -1104 1105 0
-57 60 -1105 1106 0
60 -70 85 -1106 0
10 15 30 1107 0
30 -67 -1107 1108 0
-67 -79 -85 -1108 0
28 -48 62 1109 0
62 -64 -84 -1109 0
70 -71 83 1110 0
70 -71 83 -1110 0
3 -5 -9 1111 0
-9 36 -1111 1112 0
36 52 -1112 1113 0
52 54 -1113 1114 0
54 -76 -1114 1115 0
-76 79 81 -1115 0
10 59 -64 92 0
-2 -37 -76 1116 0
-76 80 -97 -1116 0
-22 -34 54 -64 0
17 -53 -62 68 0
-5 -14 -21 1117 0
-21 25 -1117 1118 0
25 -38 -1118 1119 0
-38 62 64 -1119 0
-4 7 -22 1120 0
-22 72 85 -1120 0
-47 -76 -87 1121 0
-47 -76 -87 -1121 0
18 -23 26 1122 0
26 -65 -97 -1122 0
-8 -34 -45 1123 0
-45 56 -98 -1123 0
-44 49 -62 1124 0
-62 80 -1124 1125 0
80 -90 -1125 1126 0
-90 94 -1126 1127 0
94 97 -99 -1127 0
27 83 88 95 0
2 20 27 1128 0
27 28 89 -1128 0
-22 25 -38 1129 0
-38 -55 -92 -1129 0
-17 71 79 1130 0
79 82 89 -1130 0
1 -12 34 1131 0
34 53 -1131 1132 0
53 -59 -1132 1133 0
-59 -76 -78 -1133 0
62 -79 -84 87 0
-12 27 -52 1134 0
-52 70 -1134 1135 0
70 73 -1135 1136 0
73 79 -95 -1136 0
12 23 -57 -86 0
28 -42 77 -79 0
16 25 65 1137 0
65 86 87 -1137 0
26 67 82 94 0
-15 81 -84 1138 0
-15 81 -84 -1138 0
-10 -14 1139 1140 0
-10 -14 1139 -1140 0
-10 -14 -1139 1140 0
-10 -14 -1139 -1140 0
18 49 -66 1141 0
18 49 -66 -1141 0
22 -45 -49 -61 0
-40 42 -43 1142 0
-43 53 -1142 1143 0
53 -57 -1143 1144 0
-57 -60 -1144 1145 0
-60 64 -100 -1145 0
2 -13 -24 1146 0
-24 63 -1146 1147 0
63 87 -1147 1148 0
87 90 -1148 1149 0
90 93 -96 -1149 0
3 21 -26 1150 0
3 21 -26 -1150 0
-30 35 39 1151 0
39 -51 -1151 1152 0
-51 53 57 -1152 0
11 -36 58 1153 0
58 62 -1153 1154 0
62 74 -91 -1154 0
4 14 -23 1155 0
-23 -75 -94 -1155 0
4 -7 -55 1156 0
4 -7 -55 -1156 0
39 100 1157 1158 0
39 100 1157 -1158 0
39 100 -1157 1158 0
39 100 -1157 -1158 0
4 -19 30 1159 0
30 36 -1159 1160 0
36 39 -1160 1161 0
39 41 -1161 1162 0
41 -55 -71 -1162 0
-9 -33 -38 -51 0
15 20 -23 1163 0
-23 -36 -1163 1164 0
-36 -78 -1164 1165 0
-78 -83 -90 -1165 0
4 -6 -9 1166 0
-9 -30 -53 -1166 0
61 85 -95 1167 0
61 85 -95 -1167 0
35 36 -51 1168 0
-51 89 97 -1168 0
3 -12 33 49 0
-6 10 12 1169 0
12 -15 23 -1169 0
4 10 -47 94 0
-36 -40 -44 1170 0
-44 71 -95 -1170 0
8 -73 -83 1171 0
-83 94 95 -1171 0
25 -30 -47 1172 0
-47 54 -1172 1173 0
54 59 -1173 1174 0
59 -64 -1174 1175 0
-64 74 -95 -1175 0
11 -13 -18 1176 0
-18 22 -1176 1177 0
22 28 -1177 1178 0
28 39 -1178 1179 0
39 48 91 -1179 0
-13 17 29 1180 0
29 -32 -1180 1181 0
-32 38 -1181 1182 0
38 -44 64 -1182 0
65 82 -100 1183 0
65 82 -100 -1183 0
-50 -70 -73 -89 0
-37 -67 -76 -96 0
-10 -14 55 1184 0
55 66 -1184 1185 0
66 -67 -1185 1186 0
-67 -77 -1186 1187 0
-77 -80 -1187 1188 0
-80 83 -1188 1189 0
83 -91 -93 -1189 0
-3 16 -50 1190 0
-50 65 87 -1190 0
20 48 -58 1191 0
-58 -66 -71 -1191 0
-41 -94 -96 1192 0
-41 -94 -96 -1192 0
-5 -8 -33 46 0
9 -49 53 1193 0
9 -49 53 -1193 0
22 45 50 1194 0
22 45 50 -1194 0
3 -57 -97 1195 0
3 -57 -97 -1195 0
3 -17 -32 37 0
27 69 1196 1197 0
27 69 1196 -1197 0
27 69 -1196 1197 0
27 69 -1196 -1197 0
-4 21 1198 1199 0
-4 21 1198 -1199 0
-4 21 -1198 1199 0
-4 21 -1198 -1199 0
21 -27 49 1200 0
49 50 -1200 1201 0
50 -62 -92 -1201 0
-13 17 -32 1202 0
-32 46 -1202 1203 0
46 49 -1203 1204 0
49 51 83 -1204 0
-15 35 55 1205 0
55 58 -1205 1206 0
58 59 -1206 1207 0
59 -91 93 -1207 0
9 -23 45 1208 0
9 -23 45 -1208 0
32 43 -89 1209 0
32 43 -89 -1209 0
-16 -48 51 -100 0
11 12 64 1210 0
11 12 64 -1210 0
21 40 42 1211 0
42 44 -1211 1212 0
44 79 -1212 1213 0
79 -88 91 -1213 0
38 43 -85 1214 0
38 43 -85 -1214 0
-16 -29 -39 1215 0
-16 -29 -39 -1215 0
10 67 -76 -88 0
4 -40 99 1216 0
4 -40 99 -1216 0
13 14 -49 1217 0
-49 58 -1217 1218 0
58 68 -98 -1218 0
1 -6 -25 1219 0
-25 27 -1219 1220 0
27 32 -1220 1221 0
32 -38 94 -1221 0
35 -37 -70 -90 0
17 19 -34 1222 0
-34 36 72 -1222 0
-42 -64 -74 1223 0
-42 -64 -74 -1223 0
-37 -60 -75 1224 0
-37 -60 -75 -1224 0
-19 -32 54 93 0
-10 20 -51 1225 0
-51 -53 -1225 1226 0
-53 -76 -1226 1227 0
-76 78 -79 -1227 0
5 -17 -21 1228 0
-21 57 -1228 1229 0
57 95 -96 -1229 0
-38 69 96 1230 0
-38 69 96 -1230 0
2 5 34 1231 0
34 90 -93 -1231 0
80 91 1232 1233 0
80 91 1232 -1233 0
80 91 -1232 1233 0
80 91 -1232 -1233 0
59 -73 77 1234 0
77 -88 -93 -1234 0
-15 19 21 1235 0
21 42 -1235 1236 0
42 -49 -1236 1237 0
-49 -58 -1237 1238 0
-58 -75 -80 -1238 0
27 42 98 99 0
-8 -33 44 1239 0
44 45 -1239 1240 0
45 -60 -1240 1241 0
-60 -63 90 -1241 0
22 25 47 1242 0
47 -62 -71 -1242 0
22 -43 55 -56 0
8 -14 -26 1243 0
-26 -47 -1243 1244 0
-47 49 -1244 1245 0
49 50 -1245 1246 0
50 -52 -1246 1247 0
-52 54 -1247 1248 0
54 55 -1248 1249 0
55 -57 -62 -1249 0
21 -42 1250 1251 0
21 -42 1250 -1251 0
21 -42 -1250 1251 0
21 -42 -1250 -1251 0
-1 -100 1252 1253 0
-1 -100 1252 -1253 0
-1 -100 -1252 1253 0
-1 -100 -1252 -1253 0
13 28 -51 1254 0
-51 -60 -1254 1255 0
-60 72 83 -1255 0
-35 -85 93 94 0
-28 46 -64 99 0
21 38 -78 1256 0
-78 83 100 -1256 0
3 17 -32 1257 0
-32 -48 -1257 1258 0
-48 -56 84 -1258 0
32 -36 -75 81 0
22 36 -47 1259 0
-47 58 -97 -1259 0
24 -70 -75 1260 0
24 -70 -75 -1260 0
5 12 21 1261 0
21 23 -1261 1262 0
23 28 -1262 1263 0
28 39 -1263 1264 0
39 -53 -1264 1265 0
-53 -56 -1265 1266 0
-56 66 92 -1266 0
-24 32 41 1267 0
-24 32 41 -1267 0
-3 8 -28 1268 0
-28 -59 -1268 1269 0
-59 -68 -1269 1270 0
-68 79 -1270 1271 0
79 80 -1271 1272 0
80 87 -97 -1272 0
-19 -51 70 1273 0
70 -75 86 -1273 0
-3 28 -45 1274 0
-45 86 90 -1274 0
26 -59 -72 91 0
-1 4 22 1275 0
22 -24 -1275 1276 0
-24 -74 93 -1276 0
9 71 81 95 0
-22 -60 80 1277 0
-22 -60 80 -1277 0
42 43 -48 1278 0
-48 -62 -1278 1279 0
-62 70 -72 -1279 0
26 54 1280 1281 0
26 54 1280 -1281 0
26 54 -1280 1281 0
26 54 -1280 -1281 0
-4 8 -30 1282 0
-30 34 -1282 1283 0
34 -66 77 -1283 0
-26 49 -64 1284 0
-64 -69 -1284 1285 0
-69 -73 -1285 1286 0
-73 86 91 -1286 0
-27 51 -58 1287 0
-27 51 -58 -1287 0
24 -27 34 1288 0
34 69 -1288 1289 0
69 -79 -90 -1289 0
68 70 88 1290 0
68 70 88 -1290 0
-23 29 54 -85 0
43 93 96 1291 0
43 93 96 -1291 0
-79 82 -92 1292 0
-79 82 -92 -1292 0
1 8 -13 1293 0
-13 66 -1293 1294 0
66 67 98 -1294 0
-25 65 71 86 0
-24 27 -48 -65 0
-38 57 62 1295 0
62 71 -83 -1295 0
-8 -34 45 1296 0
45 47 -1296 1297 0
47 -68 -1297 1298 0
-68 -70 -1298 1299 0
-70 79 -1299 1300 0
79 -85 -89 -1300 0
-8 -37 88 93 0
18 46 73 1301 0
18 46 73 -1301 0
-18 25 -31 62 0
19 -23 -85 -95 0
-20 51 54 1302 0
54 -61 67 -1302 0
-5 -11 70 1303 0
70 84 85 -1303 0
-24 33 -36 1304 0
-36 -60 -1304 1305 0
-60 -64 -1305 1306 0
-64 92 -1306 1307 0
92 93 -100 -1307 0
-1 -7 -20 1308 0
-20 47 -1308 1309 0
47 49 -1309 1310 0
49 66 -1310 1311 0
66 -79 -1311 1312 0
-79 86 -87 -1312 0
32 -42 58 -69 0
-2 -6 -11 1313 0
-11 -41 -1313 1314 0
-41 86 -1314 1315 0
86 93 -94 -1315 0
-4 -18 -22 1316 0
-22 -26 -1316 1317 0
-26 36 -1317 1318 0
36 -55 -1318 1319 0
-55 -75 -1319 1320 0
-75 80 -87 -1320 0
-7 -36 38 78 0
-6 -9 22 1321 0
22 89 96 -1321 0
18 -23 30 1322 0
30 31 -1322 1323 0
31 66 -79 -1323 0
5 7 20 1324 0
20 21 -1324 1325 0
21 37 -1325 1326 0
37 41 -1326 1327 0
41 -47 -71 -1327 0
13 16 18 1328 0
18 -32 -1328 1329 0
-32 -49 -1329 1330 0
-49 75 -85 -1330 0
-12 -18 100 1331 0
-12 -18 100 -1331 0
1 2 -8 1332 0
-8 29 -1332 1333 0
29 -48 -89 -1333 0
24 -37 -47 -58 0
11 17 60 98 0
-26 -33 60 1334 0
60 -81 89 -1334 0
17 -30 -53 1335 0
-53 -72 85 -1335 0
15 16 -27 1336 0
15 16 -27 -1336 0
1 28 -29 1337 0
-29 -40 -1337 1338 0
-40 -55 -1338 1339 0
-55 -58 -1339 1340 0
-58 -79 -91 -1340 0
-17 -22 28 1341 0
28 29 -1341 1342 0
29 57 -1342 1343 0
57 89 -94 -1343 0
37 -66 69 1344 0
69 -78 -81 -1344 0
